\ Model prob_86
\ LP format - for model browsing. Use MPS format to capture full model detail.
Minimize
  151000 open[0] + 192000 open[1] + 114000 open[2] + 171000 open[3]
   + 160000 open[4] + 120000 open[5] + 2 x[0,0] + 3 x[0,1] + 3 x[0,2]
   + 3 x[0,3] + 5 x[0,4] + 4 x[1,0] + 3 x[1,1] + 5 x[1,2] + 2 x[1,3]
   + 4 x[1,4] + 2 x[2,0] + 4 x[2,1] + 5 x[2,2] + x[2,3] + 4 x[2,4]
   + 2 x[3,0] + 5 x[3,1] + 4 x[3,2] + x[3,3] + x[3,4] + 3 x[4,0] + 3 x[4,1]
   + 2 x[4,2] + 4 x[4,3] + 4 x[4,4] + 3 x[5,0] + 4 x[5,1] + 4 x[5,2]
   + x[5,3] + 3 x[5,4]
Subject To
 R0: x[0,0] + x[1,0] + x[2,0] + x[3,0] + x[4,0] + x[5,0] >= 884
 R1: x[0,1] + x[1,1] + x[2,1] + x[3,1] + x[4,1] + x[5,1] >= 420
 R2: x[0,2] + x[1,2] + x[2,2] + x[3,2] + x[4,2] + x[5,2] >= 566
 R3: x[0,3] + x[1,3] + x[2,3] + x[3,3] + x[4,3] + x[5,3] >= 673
 R4: x[0,4] + x[1,4] + x[2,4] + x[3,4] + x[4,4] + x[5,4] >= 787
 R5: - 1400 open[0] + x[0,0] + x[0,1] + x[0,2] + x[0,3] + x[0,4] <= 0
 R6: - 1115 open[1] + x[1,0] + x[1,1] + x[1,2] + x[1,3] + x[1,4] <= 0
 R7: - 813 open[2] + x[2,0] + x[2,1] + x[2,2] + x[2,3] + x[2,4] <= 0
 R8: - 1041 open[3] + x[3,0] + x[3,1] + x[3,2] + x[3,3] + x[3,4] <= 0
 R9: - 1576 open[4] + x[4,0] + x[4,1] + x[4,2] + x[4,3] + x[4,4] <= 0
 R10: - 1364 open[5] + x[5,0] + x[5,1] + x[5,2] + x[5,3] + x[5,4] <= 0
Bounds
Binaries
 open[0] open[1] open[2] open[3] open[4] open[5]
End
